param set_len = 18;
param target := 9969122;
set values := 427223, 1231193, 1255535, 1134990, 958678, 1624877, 1860054, 1347822, 696573, 1674213, 2061935, 1539009, 1554092, 1261645, 45648, 1406833, 514620, 203589, ;
